words_hard_train/2759.qaiger
aag 114 16 0 1 98
2
4
12
14
18
22
26
30
34
44
46
50
54
58
62
66
228
6 2 4
8 3 5
10 7 9
16 13 15
20 16 19
24 20 23
28 24 27
32 28 31
36 33 35
38 11 36
40 10 37
42 39 41
48 44 46
52 49 51
56 52 55
60 56 59
64 60 63
68 64 67
70 69 46
72 42 71
74 43 70
76 73 75
78 3 46
80 78 68
82 32 5
84 82 35
86 81 85
88 80 84
90 87 89
92 20 59
94 21 58
96 93 95
98 57 46
100 97 99
102 96 98
104 101 103
106 21 34
108 107 22
110 106 23
112 109 111
114 105 113
116 104 112
118 115 117
120 54 18
122 55 19
124 121 123
126 17 35
128 125 126
130 124 127
132 129 131
134 53 46
136 133 134
138 132 135
140 137 139
142 45 12
144 44 13
146 143 145
148 12 35
150 149 14
152 148 15
154 151 153
156 48 50
158 157 53
160 154 158
162 155 159
164 161 163
166 147 165
168 140 166
170 119 168
172 91 170
174 76 172
176 63 27
178 62 26
180 177 179
182 25 35
184 180 183
186 181 182
188 185 187
190 61 46
192 188 191
194 189 190
196 193 195
198 28 67
200 29 66
202 199 201
204 65 46
206 203 204
208 202 205
210 207 209
212 29 34
214 213 31
216 212 30
218 215 217
220 211 218
222 210 219
224 221 223
226 196 224
228 174 226
i0 1 x2[6]
i1 2 y1[6]
i2 2 y1[0]
i3 2 y1[1]
i4 2 y1[2]
i5 2 y1[3]
i6 2 y1[4]
i7 2 y1[5]
i8 2 y1[7]
i9 1 x2[0]
i10 1 x2[7]
i11 1 x2[1]
i12 1 x2[2]
i13 1 x2[3]
i14 1 x2[4]
i15 1 x2[5]
o0 bool[0]
c
simplified
  ==
    subtract
      abs
        2 y1
      abs
        1
    abs
      1 x2
