words_hard_train/2759.qaiger.qdimacs
p cnf 114 295
a 1 33 22 23 25 27 29 31 0
e 2 3 4 5 6 7 8 9 10 11 12 13 14 15 16 17 18 19 20 21 24 26 28 30 32 34 35 36 37 38 39 40 41 42 43 44 45 46 47 48 49 50 51 52 53 54 55 56 57 58 59 60 61 62 63 64 65 66 67 68 69 70 71 72 73 74 75 76 77 78 79 80 81 82 83 84 85 86 87 88 89 90 91 92 93 94 95 96 97 98 99 100 101 102 103 104 105 106 107 108 109 110 111 112 113 114 0
-1 -2 3 0
1 -3 0
2 -3 0
1 2 4 0
-1 -4 0
-2 -4 0
3 4 5 0
-3 -5 0
-4 -5 0
6 7 8 0
-6 -8 0
-7 -8 0
-8 9 10 0
8 -10 0
-9 -10 0
-10 11 12 0
10 -12 0
-11 -12 0
-12 13 14 0
12 -14 0
-13 -14 0
-14 15 16 0
14 -16 0
-15 -16 0
16 17 18 0
-16 -18 0
-17 -18 0
5 -18 19 0
-5 -19 0
18 -19 0
-5 18 20 0
5 -20 0
-18 -20 0
19 20 21 0
-19 -21 0
-20 -21 0
-22 -23 24 0
22 -24 0
23 -24 0
24 25 26 0
-24 -26 0
-25 -26 0
-26 27 28 0
26 -28 0
-27 -28 0
-28 29 30 0
28 -30 0
-29 -30 0
-30 31 32 0
30 -32 0
-31 -32 0
-32 33 34 0
32 -34 0
-33 -34 0
34 -23 35 0
-34 -35 0
23 -35 0
-21 35 36 0
21 -36 0
-35 -36 0
21 -35 37 0
-21 -37 0
35 -37 0
36 37 38 0
-36 -38 0
-37 -38 0
1 -23 39 0
-1 -39 0
23 -39 0
-39 -34 40 0
39 -40 0
34 -40 0
-16 2 41 0
16 -41 0
-2 -41 0
-41 17 42 0
41 -42 0
-17 -42 0
40 42 43 0
-40 -43 0
-42 -43 0
-40 -42 44 0
40 -44 0
42 -44 0
43 44 45 0
-43 -45 0
-44 -45 0
-10 29 46 0
10 -46 0
-29 -46 0
10 -29 47 0
-10 -47 0
29 -47 0
46 47 48 0
-46 -48 0
-47 -48 0
28 -23 49 0
-28 -49 0
23 -49 0
48 49 50 0
-48 -50 0
-49 -50 0
-48 -49 51 0
48 -51 0
49 -51 0
50 51 52 0
-50 -52 0
-51 -52 0
10 -17 53 0
-10 -53 0
17 -53 0
53 -11 54 0
-53 -54 0
11 -54 0
-53 11 55 0
53 -55 0
-11 -55 0
54 55 56 0
-54 -56 0
-55 -56 0
52 56 57 0
-52 -57 0
-56 -57 0
-52 -56 58 0
52 -58 0
56 -58 0
57 58 59 0
-57 -59 0
-58 -59 0
-27 -9 60 0
27 -60 0
9 -60 0
27 9 61 0
-27 -61 0
-9 -61 0
60 61 62 0
-60 -62 0
-61 -62 0
8 17 63 0
-8 -63 0
-17 -63 0
62 -63 64 0
-62 -64 0
63 -64 0
-62 63 65 0
62 -65 0
-63 -65 0
64 65 66 0
-64 -66 0
-65 -66 0
26 -23 67 0
-26 -67 0
23 -67 0
66 -67 68 0
-66 -68 0
67 -68 0
-66 67 69 0
66 -69 0
-67 -69 0
68 69 70 0
-68 -70 0
-69 -70 0
22 -6 71 0
-22 -71 0
6 -71 0
-22 6 72 0
22 -72 0
-6 -72 0
71 72 73 0
-71 -73 0
-72 -73 0
-6 17 74 0
6 -74 0
-17 -74 0
74 -7 75 0
-74 -75 0
7 -75 0
-74 7 76 0
74 -76 0
-7 -76 0
75 76 77 0
-75 -77 0
-76 -77 0
-24 -25 78 0
24 -78 0
25 -78 0
78 26 79 0
-78 -79 0
-26 -79 0
-77 -79 80 0
77 -80 0
79 -80 0
77 79 81 0
-77 -81 0
-79 -81 0
80 81 82 0
-80 -82 0
-81 -82 0
73 82 83 0
-73 -83 0
-82 -83 0
-70 -83 84 0
70 -84 0
83 -84 0
59 -84 85 0
-59 -85 0
84 -85 0
45 -85 86 0
-45 -86 0
85 -86 0
-38 -86 87 0
38 -87 0
86 -87 0
31 13 88 0
-31 -88 0
-13 -88 0
-31 -13 89 0
31 -89 0
13 -89 0
88 89 90 0
-88 -90 0
-89 -90 0
12 17 91 0
-12 -91 0
-17 -91 0
-90 91 92 0
90 -92 0
-91 -92 0
90 -91 93 0
-90 -93 0
91 -93 0
92 93 94 0
-92 -94 0
-93 -94 0
30 -23 95 0
-30 -95 0
23 -95 0
-94 95 96 0
94 -96 0
-95 -96 0
94 -95 97 0
-94 -97 0
95 -97 0
96 97 98 0
-96 -98 0
-97 -98 0
-14 33 99 0
14 -99 0
-33 -99 0
14 -33 100 0
-14 -100 0
33 -100 0
99 100 101 0
-99 -101 0
-100 -101 0
32 -23 102 0
-32 -102 0
23 -102 0
101 -102 103 0
-101 -103 0
102 -103 0
-101 102 104 0
101 -104 0
-102 -104 0
103 104 105 0
-103 -105 0
-104 -105 0
14 -17 106 0
-14 -106 0
17 -106 0
106 15 107 0
-106 -107 0
-15 -107 0
-106 -15 108 0
106 -108 0
15 -108 0
107 108 109 0
-107 -109 0
-108 -109 0
105 -109 110 0
-105 -110 0
109 -110 0
-105 109 111 0
105 -111 0
-109 -111 0
110 111 112 0
-110 -112 0
-111 -112 0
-98 -112 113 0
98 -113 0
112 -113 0
-87 -113 114 0
87 -114 0
113 -114 0
114 0
